; Query 432 -- Type: InitialValues, Instructions: 2338385
(set-option :produce-models true)
(set-logic QF_AUFBV )
(declare-fun addrbase () (Array (_ BitVec 32) (_ BitVec 8) ) )
(declare-fun addrofs () (Array (_ BitVec 32) (_ BitVec 8) ) )
(declare-fun cy_we () (Array (_ BitVec 32) (_ BitVec 8) ) )
(declare-fun dsx () (Array (_ BitVec 32) (_ BitVec 8) ) )
(declare-fun ex_spr_read () (Array (_ BitVec 32) (_ BitVec 8) ) )
(declare-fun ex_spr_write () (Array (_ BitVec 32) (_ BitVec 8) ) )
(declare-fun except_started () (Array (_ BitVec 32) (_ BitVec 8) ) )
(declare-fun flag_we () (Array (_ BitVec 32) (_ BitVec 8) ) )
(declare-fun ov_we () (Array (_ BitVec 32) (_ BitVec 8) ) )
(assert (let ( (?B1 (select  except_started (_ bv0 32) ) ) (?B2 ((_ zero_extend 24)  (select  ex_spr_write (_ bv0 32) ) ) ) (?B3 ((_ zero_extend 24)  (select  ex_spr_read (_ bv0 32) ) ) ) (?B4 (bvand  (bvshl  (bvand  (bvshl  ((_ zero_extend 24)  (select  dsx (_ bv0 32) ) ) (_ bv1 32) ) (_ bv15 32) ) (_ bv12 32) ) (_ bv61440 32) ) ) (?B5 (bvor  (concat  (select  addrbase (_ bv3 32) ) (concat  (select  addrbase (_ bv2 32) ) (concat  (select  addrbase (_ bv1 32) ) (select  addrbase (_ bv0 32) ) ) ) ) ((_ zero_extend 16)  (concat  (select  addrofs (_ bv1 32) ) (select  addrofs (_ bv0 32) ) ) ) ) ) ) (let ( (?B8 ((_ zero_extend 31)  (ite (=  (_ bv17 32) (bvand  (bvlshr  ?B5 (_ bv0 32) ) (_ bv2047 32) ) ) (_ bv1 1) (_ bv0 1) ) ) ) (?B7 ((_ zero_extend 24)  ((_ extract 7  0)  ?B2 ) ) ) (?B6 (bvshl  (bvand  ((_ zero_extend 24)  ?B1 ) (_ bv1 32) ) (_ bv16 32) ) ) ) (let ( (?B9 (bvand  (bvand  (bvand  (bvor  (bvand  (bvor  (bvand  (bvor  (bvand  (bvand  (bvand  (bvand  (bvor  (bvand  (bvor  (bvand  (bvor  (bvand  (bvand  (bvand  (bvand  (bvor  (bvand  (bvor  (bvand  ?B6 (_ bv4294966784 32) ) (_ bv1 32) ) (_ bv4294905855 32) ) ?B4 ) (_ bv4294965247 32) ) (_ bv4294966271 32) ) (_ bv4294966783 32) ) (_ bv4294901759 32) ) ?B6 ) (_ bv4294966784 32) ) (_ bv1 32) ) (_ bv4294905855 32) ) ?B4 ) (_ bv4294965247 32) ) (_ bv4294966271 32) ) (_ bv4294966783 32) ) (_ bv4294901759 32) ) ?B6 ) (_ bv4294966784 32) ) (_ bv1 32) ) (_ bv4294905855 32) ) ?B4 ) (_ bv4294965247 32) ) (_ bv4294966271 32) ) (_ bv4294966783 32) ) ) ) (and  (and  (and  (=  false (=  (_ bv0 32) (bvand  ?B7 ((_ zero_extend 24)  ((_ extract 7  0)  (bvand  (bvlshr  (bvand  (bvsub  (_ bv0 32) (bvor  ?B3 (bvand  ?B2 (bvlshr  (bvor  (bvshl  (bvand  (bvlshr  ?B9 (_ bv15 32) ) (_ bv3 32) ) (_ bv15 32) ) (bvor  (bvshl  ((_ zero_extend 24)  ((_ extract 7  0)  ((_ zero_extend 24)  ((_ extract 7  0)  (bvand  (bvlshr  ?B9 (_ bv14 32) ) (_ bv1 32) ) ) ) ) ) (_ bv14 32) ) (bvand  (bvlshr  ?B9 (_ bv0 32) ) (_ bv16383 32) ) ) ) (_ bv0 32) ) ) ) ) (_ bv16 32) ) (_ bv0 32) ) ?B8 ) ) ) ) ) ) (=  (_ bv4 32) (bvand  (bvlshr  ?B5 (_ bv11 32) ) (_ bv31 32) ) ) ) (=  false (=  (_ bv0 8) ?B1 ) ) ) (=  false (=  (_ bv0 8) ((_ extract 7  0)  (bvor  (bvor  (bvor  (bvand  ?B7 ((_ zero_extend 24)  ((_ extract 7  0)  (bvand  (bvlshr  (bvand  (bvsub  (_ bv0 32) ?B3 ) (_ bv16 32) ) (_ bv0 32) ) ?B8 ) ) ) ) ((_ zero_extend 24)  (select  flag_we (_ bv0 32) ) ) ) ((_ zero_extend 24)  (select  cy_we (_ bv0 32) ) ) ) ((_ zero_extend 24)  (select  ov_we (_ bv0 32) ) ) ) ) ) ) ) ) ) ) )
(check-sat)
(get-value ( (select ex_spr_write (_ bv0 32) ) ) )
(get-value ( (select ex_spr_write (_ bv1 32) ) ) )
(get-value ( (select ex_spr_write (_ bv2 32) ) ) )
(get-value ( (select ex_spr_write (_ bv3 32) ) ) )
(get-value ( (select ex_spr_read (_ bv0 32) ) ) )
(get-value ( (select ex_spr_read (_ bv1 32) ) ) )
(get-value ( (select ex_spr_read (_ bv2 32) ) ) )
(get-value ( (select ex_spr_read (_ bv3 32) ) ) )
(get-value ( (select addrbase (_ bv0 32) ) ) )
(get-value ( (select addrbase (_ bv1 32) ) ) )
(get-value ( (select addrbase (_ bv2 32) ) ) )
(get-value ( (select addrbase (_ bv3 32) ) ) )
(get-value ( (select addrofs (_ bv0 32) ) ) )
(get-value ( (select addrofs (_ bv1 32) ) ) )
(get-value ( (select addrofs (_ bv2 32) ) ) )
(get-value ( (select addrofs (_ bv3 32) ) ) )
(get-value ( (select flag_we (_ bv0 32) ) ) )
(get-value ( (select flag_we (_ bv1 32) ) ) )
(get-value ( (select flag_we (_ bv2 32) ) ) )
(get-value ( (select flag_we (_ bv3 32) ) ) )
(get-value ( (select cy_we (_ bv0 32) ) ) )
(get-value ( (select cy_we (_ bv1 32) ) ) )
(get-value ( (select cy_we (_ bv2 32) ) ) )
(get-value ( (select cy_we (_ bv3 32) ) ) )
(get-value ( (select ov_we (_ bv0 32) ) ) )
(get-value ( (select ov_we (_ bv1 32) ) ) )
(get-value ( (select ov_we (_ bv2 32) ) ) )
(get-value ( (select ov_we (_ bv3 32) ) ) )
(get-value ( (select except_started (_ bv0 32) ) ) )
(get-value ( (select except_started (_ bv1 32) ) ) )
(get-value ( (select except_started (_ bv2 32) ) ) )
(get-value ( (select except_started (_ bv3 32) ) ) )
(get-value ( (select dsx (_ bv0 32) ) ) )
(get-value ( (select dsx (_ bv1 32) ) ) )
(get-value ( (select dsx (_ bv2 32) ) ) )
(get-value ( (select dsx (_ bv3 32) ) ) )
(exit)
;   OK -- Elapsed: 5.115986e-03
;   Solvable: false
